NAME : LPS-n11-m66
COMMENT : (Lartu-Peter-Santi Plot, instance 3266 out of 39200. 11 customers.)
TYPE : CVRP
DIMENSION : 11
EDGE_WEIGHT_TYPE : EUC_2D
CAPACITY : 81
NODE_COORD_SECTION
 1 80 91
 2 12 38
 3 87 65
 4 33 5
 5 59 72
 6 68 35
 7 64 80
 8 38 68
 9 72 29
 10 63 36
 11 39 4
DEMAND_SECTION
1 0
2 56
3 16
4 34
5 43
6 68
7 42
8 60
9 73
10 51
11 27
DEPOT_SECTION
 1
 -1
EOF
